Route #1: 32 33 53 73 95 24
Route #2: 40 67 88 44
Route #3: 7 2 45 43 29 36 72 57
Route #4: 58 12 5
Route #5: 93 75
Route #6: 30 85 11 79
Route #7: 18 10 39
Route #8: 50 91 52
Route #9: 25 65 78 42 28
Route #10: 15 22 41 20
Route #11: 87 37 6 49 14
Route #12: 82 60 59
Route #13: 3 77 63
Route #14: 23 61 100
Route #15: 86 9 92
Route #16: 31 46 35
Route #17: 17 8
Route #18: 71 62 99 98 89
Route #19: 80 94 56 21
Route #20: 81 51 83
Route #21: 1 70 54
Route #22: 38 47 26 48 96 64 34
Route #23: 74 13 4
Route #24: 19 97 27
Route #25: 76 55 16 69
Route #26: 68 90 84 66
Cost 27591.0000
Time 16.0005